c 167_4_checker_5cl.cnf
c
c field = 167
c formula set type = 4_checker_5cl
c
p cnf 5 6
330 
334 
336 
338 
-340 
331 
335 
337 
339 
-341 
302 
362 
392 
422 
-272 
303 
363 
393 
423 
-273 
248 
276 
304 
360 
-220 
249 
277 
305 
361 
-221 
